language ESSENCE' 1.0
letting lastdx=102
letting cage be [
[38,11,11,11,10,10,10,10,9,0,0],
[2,12,11,0,0, 0,0, 0,0, 0,0],
[47,4,13,4,14,3,14,3,13,3,12],
[19,16,11,16,10,0,0, 0,0, 0,0],
[19,8,16,8,15,0,0, 0,0, 0,0],
[25,9,10,8,10,8,9,0,0, 0,0],
[17,9,11,9,12,0,0, 0,0, 0,0],
[6,3,7,0,0, 0,0, 0,0, 0,0],
[29,7,11,7,12,7,13,7,14,6,14],
[25,6,13,6,12,6,11,0,0, 0,0],
[13,12,7,0,0, 0,0, 0,0, 0,0],
[22,6,2,5,2,0,0, 0,0, 0,0],
[14,12,12,0,0, 0,0, 0,0, 0,0],
[6,2,16,0,0, 0,0, 0,0, 0,0],
[36,13,10,13,11,13,12,13,13,0,0],
[23,6,3,7,3,0,0, 0,0, 0,0],
[23,10,8,9,8,9,9,0,0, 0,0],
[10,11,7,0,0, 0,0, 0,0, 0,0],
[4,5,11,0,0, 0,0, 0,0, 0,0],
[2,15,10,0,0, 0,0, 0,0, 0,0],
[19,7,16,6,16,5,16,0,0, 0,0],
[35,12,15,12,16,13,16,13,15,13,14],
[16,11,2,0,0, 0,0, 0,0, 0,0],
[11,11,3,10,3,9,3,0,0, 0,0],
[1,5,8,0,0, 0,0, 0,0, 0,0],
[47,13,8,14,8,14,9,15,9,16,9],
[18,12,5,12,6,0,0, 0,0, 0,0],
[19,2,11,2,10,1,10,0,0, 0,0],
[23,16,8,16,7,15,7,15,8,0,0],
[12,9,7,0,0, 0,0, 0,0, 0,0],
[28,1,14,1,13,1,12,1,11,0,0],
[8,9,14,9,15,0,0, 0,0, 0,0],
[13,7,15,0,0, 0,0, 0,0, 0,0],
[62,14,16,14,15,15,15,15,14,16,14],
[6,5,1,0,0, 0,0, 0,0, 0,0],
[29,4,10,4,11,4,12,0,0, 0,0],
[38,10,1,11,1,12,1,13,1,0,0],
[15,12,9,12,10,13,9,0,0, 0,0],
[5,11,4,0,0, 0,0, 0,0, 0,0],
[11,2,13,2,12,0,0, 0,0, 0,0],
[1,9,6,0,0, 0,0, 0,0, 0,0],
[16,10,5,11,5,0,0, 0,0, 0,0],
[60,4,9,5,9,6,9,6,10,5,10],
[12,14,6,0,0, 0,0, 0,0, 0,0],
[14,5,13,5,12,0,0, 0,0, 0,0],
[8,16,13,0,0, 0,0, 0,0, 0,0],
[36,15,13,15,12,16,12,0,0, 0,0],
[29,7,1,6,1,8,1,8,2,7,2],
[22,6,4,6,5,0,0, 0,0, 0,0],
[12,12,13,0,0, 0,0, 0,0, 0,0],
[47,2,9,2,8,2,7,1,7,1,6],
[10,14,4,0,0, 0,0, 0,0, 0,0],
[15,3,3,0,0, 0,0, 0,0, 0,0],
[14,7,8,0,0, 0,0, 0,0, 0,0],
[40,8,5,7,5,7,4,8,4,8,3],
[4,9,16,0,0, 0,0, 0,0, 0,0],
[11,3,1,0,0, 0,0, 0,0, 0,0],
[19,13,6,13,5,14,5,15,5,0,0],
[14,14,3,0,0, 0,0, 0,0, 0,0],
[45,1,4,1,5,2,5,2,4,3,4],
[36,7,7,8,7,8,8,0,0, 0,0],
[23,13,7,14,7,0,0, 0,0, 0,0],
[5,1,16,0,0, 0,0, 0,0, 0,0],
[31,13,4,12,4,12,3,12,2,0,0],
[17,11,8,11,9,12,8,0,0, 0,0],
[16,1,1,0,0, 0,0, 0,0, 0,0],
[1,15,2,0,0, 0,0, 0,0, 0,0],
[36,9,4,9,5,10,4,0,0, 0,0],
[5,3,15,3,16,0,0, 0,0, 0,0],
[6,14,1,14,2,0,0, 0,0, 0,0],
[8,15,1,0,0, 0,0, 0,0, 0,0],
[13,14,12,14,13,14,14,0,0, 0,0],
[16,16,4,16,5,0,0, 0,0, 0,0],
[21,8,14,8,13,0,0, 0,0, 0,0],
[16,4,16,0,0, 0,0, 0,0, 0,0],
[37,16,2,16,1,16,3,15,3,15,4],
[10,15,11,0,0, 0,0, 0,0, 0,0],
[32,10,16,11,16,11,15,0,0, 0,0],
[42,9,2,9,1,10,2,0,0, 0,0],
[29,11,13,11,12,10,12,10,11,0,0],
[19,14,11,14,10,0,0, 0,0, 0,0],
[6,1,2,0,0, 0,0, 0,0, 0,0],
[7,1,3,0,0, 0,0, 0,0, 0,0],
[27,1,8,1,9,0,0, 0,0, 0,0],
[11,1,15,0,0, 0,0, 0,0, 0,0],
[3,2,1,0,0, 0,0, 0,0, 0,0],
[22,2,2,2,3,0,0, 0,0, 0,0],
[23,2,6,3,6,3,5,0,0, 0,0],
[23,2,14,2,15,0,0, 0,0, 0,0],
[9,3,2,0,0, 0,0, 0,0, 0,0],
[10,4,1,4,2,4,3,0,0, 0,0],
[7,4,15,0,0, 0,0, 0,0, 0,0],
[22,5,14,5,15,6,15,0,0, 0,0],
[9,6,7,6,8,0,0, 0,0, 0,0],
[19,7,6,8,6,0,0, 0,0, 0,0],
[13,7,9,7,10,0,0, 0,0, 0,0],
[24,8,11,8,12,0,0, 0,0, 0,0],
[32,9,13,10,13,10,14,10,15,0,0],
[27,10,6,10,7,11,6,0,0, 0,0],
[29,11,14,12,14,0,0, 0,0, 0,0],
[27,13,2,13,3,0,0, 0,0, 0,0],
[27,15,6,16,6,0,0, 0,0, 0,0],
[23,15,16,16,16,16,15,0,0, 0,0]
]
